* ENCODING=ISO-8859-1
NAME          CPLEX
ROWS
 N  obj1    
 G  c1      
 G  c2      
 G  c3      
 G  c4      
 G  c5      
 G  c6      
 G  c7      
 G  c8      
 G  c9      
 G  c10     
 G  c11     
 G  c12     
 G  c13     
 G  c14     
 G  c15     
 G  c16     
 G  c17     
 G  c18     
 G  c19     
 G  c20     
 G  c21     
 G  c22     
 G  c23     
 G  c24     
 G  c25     
 G  c26     
 G  c27     
 G  c28     
 G  c29     
 G  c30     
 G  c31     
 G  c32     
 G  c33     
 G  c34     
 G  c35     
COLUMNS
    MARK0000  'MARKER'                 'INTORG'
    x1        obj1                            1
    x1        c3                            691
    x1        c15                           654
    x1        c19                           237
    x1        c27                           896
    x2        obj1                            1
    x2        c6                            457
    x2        c8                            643
    x2        c9                            293
    x2        c22                           699
    x2        c25                           587
    x2        c30                           183
    x3        obj1                            1
    x3        c10                           922
    x3        c11                           194
    x3        c13                           412
    x3        c22                           562
    x3        c33                           989
    x4        obj1                            1
    x4        c6                            443
    x4        c10                           488
    x4        c11                           409
    x4        c19                           563
    x4        c28                           996
    x4        c29                           640
    x5        obj1                            1
    x5        c9                            895
    x5        c12                           393
    x5        c20                           201
    x5        c24                           177
    x5        c35                           243
    x6        obj1                            1
    x6        c5                            890
    x6        c11                           773
    x6        c21                           492
    x6        c24                           544
    x7        obj1                            1
    x7        c17                           758
    x7        c24                           385
    x7        c34                           838
    x8        obj1                            1
    x9        obj1                            1
    x9        c19                           319
    x9        c30                           328
    x9        c31                           563
    x9        c32                           150
    x10       obj1                            1
    x10       c6                            315
    x10       c17                           249
    x10       c23                           307
    x10       c24                           972
    x10       c26                           234
    x11       obj1                            1
    x11       c11                           993
    x11       c15                           526
    x11       c23                           794
    x11       c33                           483
    x12       obj1                            1
    x12       c7                            434
    x12       c34                           136
    x13       obj1                            1
    x13       c14                           846
    x13       c21                           857
    x13       c26                           506
    x13       c29                           318
    x14       obj1                            1
    x14       c16                           918
    x14       c20                           827
    x14       c23                           913
    x14       c25                           424
    x15       obj1                            1
    x15       c5                            687
    x15       c12                           442
    x15       c16                           429
    x16       obj1                            1
    x16       c2                            585
    x16       c9                            618
    x16       c10                           971
    x16       c16                           849
    x16       c34                           332
    x17       obj1                            1
    x17       c4                            215
    x17       c8                            318
    x17       c9                            805
    x17       c25                           756
    x17       c32                           242
    x18       obj1                            1
    x18       c4                            541
    x18       c6                            625
    x18       c17                           220
    x18       c28                           671
    x19       obj1                            1
    x19       c5                            225
    x19       c8                            654
    x19       c9                            718
    x19       c14                           827
    x19       c15                           384
    x19       c24                           942
    x19       c28                           604
    x20       obj1                            1
    x20       c7                            715
    x20       c8                            762
    x20       c11                           880
    x20       c15                           378
    x20       c29                           836
    x21       obj1                            1
    x21       c10                           809
    x21       c29                           135
    x22       obj1                            1
    x22       c4                            779
    x22       c19                           755
    x22       c31                           197
    x22       c32                           112
    x23       obj1                            1
    x23       c7                            257
    x23       c25                           753
    x23       c30                           796
    x24       obj1                            1
    x24       c5                            935
    x24       c29                           182
    x25       obj1                            1
    x25       c17                           344
    x25       c21                           456
    x25       c24                           851
    x25       c26                           951
    x26       obj1                            1
    x26       c7                            557
    x26       c15                           896
    x26       c28                           616
    x26       c33                           986
    x27       obj1                            1
    x27       c2                            380
    x27       c14                           400
    x28       obj1                            1
    x28       c1                            593
    x28       c3                            317
    x28       c22                           715
    x29       obj1                            1
    x29       c17                           763
    x29       c31                           760
    x30       obj1                            1
    x30       c1                            888
    x30       c4                            566
    x30       c12                           234
    x30       c26                           445
    x30       c32                           414
    x30       c34                           431
    x31       obj1                            1
    x31       c5                            515
    x31       c6                            528
    x31       c22                           578
    x31       c29                           181
    x32       obj1                            1
    x32       c10                           642
    x32       c13                           373
    x32       c15                           203
    x32       c16                           233
    x32       c35                           836
    x33       obj1                            1
    x33       c5                            829
    x33       c9                            875
    x33       c23                           686
    x33       c27                           948
    x33       c33                           349
    x34       obj1                            1
    x34       c1                            294
    x34       c8                            505
    x35       obj1                            1
    x35       c4                            292
    x35       c7                            175
    x35       c9                            115
    x35       c10                           326
    x35       c15                           312
    x35       c18                           711
    x35       c20                           438
    x35       c32                           308
    x36       obj1                            1
    x36       c33                           826
    x37       obj1                            1
    x37       c17                           656
    x37       c22                           232
    x37       c27                           725
    x37       c35                           468
    x38       obj1                            1
    x38       c11                           955
    x38       c21                           223
    x39       obj1                            1
    x39       c5                            746
    x39       c18                           977
    x39       c29                           298
    x40       obj1                            1
    x40       c2                            258
    x40       c25                           244
    x40       c34                           995
    x41       obj1                            1
    x41       c13                           705
    x42       obj1                            1
    x42       c32                           884
    x42       c35                           392
    x43       obj1                            1
    x43       c1                            417
    x43       c17                           694
    x43       c25                           615
    x43       c26                           540
    x44       obj1                            1
    x44       c1                            972
    x44       c7                            811
    x44       c18                           809
    x44       c21                           925
    x45       obj1                            1
    x45       c2                            247
    x45       c5                            372
    x45       c6                            590
    x45       c11                           343
    x45       c13                           499
    x45       c16                           771
    x45       c19                           207
    x45       c23                           716
    x45       c27                           914
    x45       c30                           742
    x45       c31                           365
    x46       obj1                            1
    x46       c3                            804
    x46       c22                           354
    x47       obj1                            1
    x47       c8                            468
    x47       c23                           981
    x47       c26                           228
    x48       obj1                            1
    x48       c8                            607
    x48       c26                           940
    x48       c35                           953
    x49       obj1                            1
    x49       c8                            812
    x49       c13                           119
    x49       c18                           773
    x49       c25                           692
    x49       c33                           667
    x49       c35                           942
    x50       obj1                            1
    x50       c9                            311
    x50       c10                           318
    x50       c23                           883
    x51       obj1                            1
    x51       c4                            954
    x51       c20                           356
    x51       c25                           973
    x51       c30                           582
    x52       obj1                            1
    x52       c21                           674
    x52       c31                           960
    x52       c34                           291
    x53       obj1                            1
    x53       c1                            638
    x53       c19                           914
    x53       c30                           858
    x53       c32                           694
    x53       c33                           553
    x53       c35                           373
    x54       obj1                            1
    x54       c6                            807
    x54       c9                            995
    x54       c29                           156
    x54       c30                           723
    x54       c32                           608
    x54       c35                           374
    x55       obj1                            1
    x55       c4                            472
    x55       c14                           265
    x55       c16                           749
    x55       c19                           622
    x55       c25                           148
    x56       obj1                            1
    x56       c13                           442
    x56       c22                           238
    x56       c35                           743
    x57       obj1                            1
    x57       c7                            589
    x57       c17                           849
    x57       c19                           597
    x57       c31                           213
    x58       obj1                            1
    x58       c11                           776
    x58       c23                           638
    x59       obj1                            1
    x59       c3                            936
    x59       c19                           317
    x59       c20                           545
    x59       c28                           543
    x59       c33                           414
    x60       obj1                            1
    x60       c6                            225
    x60       c18                           684
    x60       c21                           994
    x60       c33                           339
    x60       c35                           928
    x61       obj1                            1
    x61       c15                           342
    x61       c34                           290
    x62       obj1                            1
    x62       c12                           620
    x62       c16                           978
    x62       c24                           329
    x62       c28                           244
    x63       obj1                            1
    x63       c2                            757
    x63       c3                            599
    x63       c4                            252
    x63       c10                           422
    x64       obj1                            1
    x64       c16                           780
    x64       c18                           853
    x64       c21                           513
    x64       c30                           729
    x65       obj1                            1
    x65       c22                           734
    x65       c23                           804
    x65       c32                           324
    x66       obj1                            1
    x66       c1                            129
    x67       obj1                            1
    x67       c3                            690
    x67       c28                           557
    x68       obj1                            1
    x68       c6                            275
    x68       c9                            821
    x68       c21                           387
    x68       c25                           705
    x69       obj1                            1
    x69       c4                            905
    x69       c16                           165
    x69       c22                           760
    x70       obj1                            1
    x70       c13                           751
    x70       c17                           899
    x70       c32                           559
    MARK0001  'MARKER'                 'INTEND'
RHS
    rhs       c1                           1966
    rhs       c2                           1114
    rhs       c3                           2019
    rhs       c4                           2488
    rhs       c5                           2600
    rhs       c6                           2133
    rhs       c7                           1769
    rhs       c8                           2385
    rhs       c9                           3223
    rhs       c10                          2449
    rhs       c11                          2662
    rhs       c12                           845
    rhs       c13                          1651
    rhs       c14                          1169
    rhs       c15                          1848
    rhs       c16                          2936
    rhs       c17                          2716
    rhs       c18                          2404
    rhs       c19                          2266
    rhs       c20                          1184
    rhs       c21                          2761
    rhs       c22                          2436
    rhs       c23                          3361
    rhs       c24                          2100
    rhs       c25                          2949
    rhs       c26                          1922
    rhs       c27                          1742
    rhs       c28                          2116
    rhs       c29                          1373
    rhs       c30                          2471
    rhs       c31                          1529
    rhs       c32                          2148
    rhs       c33                          2803
    rhs       c34                          1657
    rhs       c35                          3126
BOUNDS
 LI bnd       x1        0
 LI bnd       x2        0
 LI bnd       x3        0
 LI bnd       x4        0
 LI bnd       x5        0
 LI bnd       x6        0
 LI bnd       x7        0
 LI bnd       x8        0
 LI bnd       x9        0
 LI bnd       x10       0
 LI bnd       x11       0
 LI bnd       x12       0
 LI bnd       x13       0
 LI bnd       x14       0
 LI bnd       x15       0
 LI bnd       x16       0
 LI bnd       x17       0
 LI bnd       x18       0
 LI bnd       x19       0
 LI bnd       x20       0
 LI bnd       x21       0
 LI bnd       x22       0
 LI bnd       x23       0
 LI bnd       x24       0
 LI bnd       x25       0
 LI bnd       x26       0
 LI bnd       x27       0
 LI bnd       x28       0
 LI bnd       x29       0
 LI bnd       x30       0
 LI bnd       x31       0
 LI bnd       x32       0
 LI bnd       x33       0
 LI bnd       x34       0
 LI bnd       x35       0
 LI bnd       x36       0
 LI bnd       x37       0
 LI bnd       x38       0
 LI bnd       x39       0
 LI bnd       x40       0
 LI bnd       x41       0
 LI bnd       x42       0
 LI bnd       x43       0
 LI bnd       x44       0
 LI bnd       x45       0
 LI bnd       x46       0
 LI bnd       x47       0
 LI bnd       x48       0
 LI bnd       x49       0
 LI bnd       x50       0
 LI bnd       x51       0
 LI bnd       x52       0
 LI bnd       x53       0
 LI bnd       x54       0
 LI bnd       x55       0
 LI bnd       x56       0
 LI bnd       x57       0
 LI bnd       x58       0
 LI bnd       x59       0
 LI bnd       x60       0
 LI bnd       x61       0
 LI bnd       x62       0
 LI bnd       x63       0
 LI bnd       x64       0
 LI bnd       x65       0
 LI bnd       x66       0
 LI bnd       x67       0
 LI bnd       x68       0
 LI bnd       x69       0
 LI bnd       x70       0
ENDATA
